c This is QMaxSAT 2017 based on 14.07
c This is Glucose 3.0
c This is MiniSat 2.2.0
c WARNING: for repeatability, setting FPU to use double precision
c card = mrwto, comp = 0, pmodel = 0, narr = 3, mct = 16, verb = 0
cr firstCPXsol 0 0 0
c top = 214379
c |  Number of variables:    262233                                           |
c |  Number of clauses:      6539196                                          |
c |  Weight of hard clauses: 214379                                           |
c |  Number of soft clauses: 720                                              |
c |  Number of unit soft clauses: 720                                         |
c |  Maximum Cardinality (by unit): 643134       (643134      )               |
c last restart ## conflicts  :  26 31650 
o 7526 | cpuTime 1.05855 s
c Sum of weights = 214378
c A number of soft clauses remained = 240
c MRWTO encoding for Pseudo-Boolean Constraints
c sizeMax=7526
c No.0 Divisor=10	generated by pow1
c No.1 Divisor=10	generated by pow1
c No.2 Divisor=10	generated by pow1
c No.3 Divisor=10	generated by pow1
c p0= 10	p1= 10	p2= 10	p3= 10	
c number of digits = 5
c linkingVar[0].size = 10, linkingVar[1].size = 10, linkingVar[2].size = 10, linkingVar[3].size = 8, linkingVar[4].size = 1, 
c Pseudo-Boolean Constraints: 6457 variables and 59049 clauses
c Sum of weights = 214378
c A number of soft clauses remained = 240
c MRWTO encoding for Pseudo-Boolean Constraints
c sizeMax=7526
c No.0 Divisor=10	generated by pow1
c No.1 Divisor=10	generated by pow1
c No.2 Divisor=10	generated by pow1
c No.3 Divisor=10	generated by pow1
c p0= 10	p1= 10	p2= 10	p3= 10	
c number of digits = 5
c linkingVar[0].size = 10, linkingVar[1].size = 10, linkingVar[2].size = 10, linkingVar[3].size = 8, linkingVar[4].size = 1, 
c Pseudo-Boolean Constraints: 6457 variables and 59049 clauses
c Sum of weights = 214378
c A number of soft clauses remained = 240
c MRWTO encoding for Pseudo-Boolean Constraints
c sizeMax=7526
c No.0 Divisor=10	generated by pow1
c No.1 Divisor=10	generated by pow1
c No.2 Divisor=10	generated by pow1
c No.3 Divisor=10	generated by pow1
c p0= 10	p1= 10	p2= 10	p3= 10	
c number of digits = 5
c linkingVar[0].size = 10, linkingVar[1].size = 10, linkingVar[2].size = 10, linkingVar[3].size = 8, linkingVar[4].size = 1, 
c Pseudo-Boolean Constraints: 6457 variables and 59049 clauses
c last restart ## conflicts  :  320 35395 
o 6903 | cpuTime 2.35393 s
c last restart ## conflicts  :  267 35066 
o 5407 | cpuTime 3.22764 s
c last restart ## conflicts  :  84 35423 
o 5405 | cpuTime 8.01864 s
c last restart ## conflicts  :  450 35173 
o 5332 | cpuTime 14.6967 s
c last restart ## conflicts  :  102 34805 
o 5213 | cpuTime 16.422 s
c last restart ## conflicts  :  157 34445 
o 5144 | cpuTime 31.3591 s
s OPTIMUM FOUND
cr positiVarArr: [ | 11@1(1->11) | 161@1(11->1) | 264@2(1->8) | 288@2(2->16) | 290@2(3->2) | 327@2(5->7) | 364@2(7->12) | 382@2(8->14) | 435@2(12->3) | 469@2(14->5) | 497@2(16->1) | 525@3(1->13) | 561@3(4->1) | 602@3(6->10) | 646@3(9->6) | 671@3(10->15) | 713@3(13->9) | 740@3(15->4) | ]
cr the 1-th chain: [ 1->11->1 ] (#non-depot=1) {#cumul.=2}
cr the 2-th chain: [ 1->8->14->5->7->12->3->2->16->1 ] (#non-depot=8) {#cumul.=10}
cr the 3-th chain: [ 1->13->9->6->10->15->4->1 ] (#non-depot=6) {#cumul.=16}
c Latest Answer = 0 by 7 loops
c restarts              : 9206
c conflicts             : 2098543        (1133 /sec)
c decisions             : 5905655        (0.00 % random) (3188 /sec)
c propagations          : 13512580786    (7293866 /sec)
c conflict literals     : 157568929      (46.08 % deleted)
c Memory used           : 833.00 MB
c CPU time              : 1852.6 s
